20
 N1C3W2_A 
 150 50 0 
100
96
94
93
91
91
91
88
84
83
80
78
78
76
75
74
72
72
70
65
61
60
56
52
51
51
48
46
45
38
38
37
37
37
36
35
35
32
32
31
30
29
29
28
27
27
23
23
22
21
 N1C3W2_B 
 150 50 0 
98
96
95
94
92
89
88
88
87
87
86
85
83
80
80
77
76
76
73
72
71
69
69
69
57
57
53
50
45
45
44
44
43
42
37
36
36
35
35
34
33
31
30
27
24
24
23
21
20
20
 N1C3W2_C 
 150 50 0 
98
98
96
95
94
93
92
91
89
88
88
88
86
83
83
82
80
79
78
76
76
75
73
67
63
63
62
55
54
53
52
51
51
51
47
45
45
42
42
40
37
37
36
36
29
29
25
24
20
20
 N1C3W2_D 
 150 50 0 
100
99
98
96
94
92
90
89
89
89
87
86
81
80
78
77
74
74
72
72
63
62
60
60
55
55
54
53
50
50
46
46
45
42
42
41
38
35
34
33
33
32
28
28
27
26
23
21
21
20
 N1C3W2_E 
 150 50 0 
100
100
99
96
95
94
92
92
90
89
89
84
82
80
80
79
74
74
72
71
69
67
67
64
62
60
60
59
58
55
51
48
47
46
45
43
42
41
41
40
38
34
33
32
27
26
24
24
23
20
 N1C3W2_F 
 150 50 0 
100
99
99
98
97
96
93
91
89
86
85
82
78
76
75
74
73
71
68
68
66
65
65
64
63
63
63
63
63
62
60
59
56
55
55
53
51
50
48
45
43
43
42
42
39
39
35
31
27
26
 N1C3W2_G 
 150 50 0 
98
98
98
96
93
93
92
91
90
90
87
87
86
85
83
82
81
78
78
75
75
74
74
72
72
71
70
69
68
66
61
60
60
59
57
53
51
42
40
40
35
34
34
31
30
30
24
22
21
20
 N1C3W2_H 
 150 50 0 
99
98
98
97
97
95
94
93
91
91
88
87
82
80
80
79
79
79
75
74
73
72
71
69
68
66
63
63
61
60
58
58
55
54
53
53
52
50
46
45
44
42
40
38
37
35
29
24
24
20
 N1C3W2_I 
 150 50 0 
96
95
91
89
87
86
85
81
78
78
68
67
66
66
65
62
61
60
60
59
58
56
54
51
50
50
49
49
49
48
47
46
46
46
45
45
44
41
41
41
40
36
35
34
33
32
31
27
26
26
 N1C3W2_J 
 150 50 0 
99
96
95
95
94
93
93
92
91
91
90
89
87
86
86
84
81
80
73
68
66
64
62
61
61
59
59
56
55
54
49
48
48
47
46
45
45
43
42
41
41
40
39
37
36
34
32
26
24
20
 N1C3W2_K 
 150 50 0 
95
94
93
93
91
89
89
89
88
85
82
82
78
78
77
76
73
73
73
70
70
70
70
69
68
66
63
62
59
55
55
53
51
49
42
42
41
41
40
38
35
32
31
30
30
28
28
24
23
23
 N1C3W2_L 
 150 50 0 
99
99
98
98
97
95
92
92
87
85
84
83
80
78
77
75
73
73
69
68
66
63
63
63
59
57
56
56
53
53
51
50
50
48
48
46
46
44
43
42
39
37
34
32
29
25
24
22
22
21
 N1C3W2_M 
 150 50 0 
100
99
96
94
92
91
91
89
85
84
81
81
79
79
78
77
76
75
74
73
67
65
64
63
63
59
57
57
54
52
51
49
49
47
46
46
44
44
43
43
40
38
34
33
32
31
30
29
25
22
 N1C3W2_N 
 150 50 0 
98
95
95
91
91
89
89
88
88
87
86
84
83
82
80
79
78
75
74
74
73
72
72
70
70
68
68
67
65
59
58
58
57
55
54
53
51
42
41
39
37
36
35
34
32
25
25
21
21
20
 N1C3W2_O 
 150 50 0 
99
99
96
93
88
83
82
80
79
79
77
77
75
75
73
73
72
71
71
71
71
69
69
67
62
62
61
58
58
56
54
53
52
49
46
45
45
41
40
39
35
35
34
33
31
27
27
26
22
21
 N1C3W2_P 
 150 50 0 
95
94
88
88
88
86
85
84
83
79
73
72
72
72
71
70
64
63
61
58
55
53
53
52
51
51
51
48
48
46
45
40
39
38
36
36
35
33
32
28
25
24
24
23
23
23
22
22
20
20
 N1C3W2_Q 
 150 50 0 
96
91
87
86
84
83
83
83
81
80
79
74
72
70
70
67
62
61
60
59
58
56
55
55
54
52
51
51
51
50
49
48
44
43
43
42
40
39
38
34
34
34
33
32
31
31
29
29
22
21
 N1C3W2_R 
 150 50 0 
100
98
91
87
82
78
77
77
77
75
75
74
72
72
72
70
70
66
66
65
63
63
62
59
57
56
55
53
52
51
49
48
47
46
46
44
44
42
36
35
34
34
31
30
29
26
23
22
21
20
 N1C3W2_S 
 150 50 0 
100
99
97
96
96
95
94
91
90
88
85
83
83
81
79
79
78
77
77
74
72
70
69
66
64
63
63
61
58
56
52
51
45
42
36
36
36
35
34
33
32
32
31
30
28
25
24
21
21
20
 N1C3W2_T 
 150 50 0 
100
99
96
95
93
91
91
88
87
87
85
85
85
84
83
83
78
77
76
75
74
70
67
65
63
63
62
60
60
58
56
55
55
54
52
50
49
49
45
42
29
29
27
27
26
25
24
23
22
20
